&GLOBAL
  PROJECT Si_bulk8
  RUN_TYPE ENERGY
  PRINT_LEVEL MEDIUM
&END GLOBAL
&FORCE_EVAL
  METHOD Quickstep
  &SUBSYS
    &KIND Si
      ELEMENT	Si
      BASIS_SET DZVP-GTH-PADE
      POTENTIAL GTH-PADE-q4
    &END KIND
    &CELL
      A     5.430697500    0.000000000    0.000000000
      B     0.000000000    5.430697500    0.000000000
      C     0.000000000    0.000000000    5.430697500
      PERIODIC XYZ
    &END CELL
    &COORD
      Si    0.000000000    0.000000000    0.000000000
      Si    0.000000000    2.715348700    2.715348700
      Si    2.715348700    2.715348700    0.000000000
      Si    2.715348700    0.000000000    2.715348700
      Si    4.073023100    1.357674400    4.073023100
      Si    1.357674400    1.357674400    1.357674400
      Si    1.357674400    4.073023100    4.073023100
      Si    4.073023100    4.073023100    1.357674400
    &END COORD
  &END SUBSYS
  &DFT
    BASIS_SET_FILE_NAME  BASIS_SET
    POTENTIAL_FILE_NAME  GTH_POTENTIALS
    &QS
      EPS_DEFAULT 1.0E-10
    &END QS
    &MGRID
      NGRIDS 4
      CUTOFF 300
      REL_CUTOFF 80
    &END MGRID
    &XC
      &XC_FUNCTIONAL PADE
      &END XC_FUNCTIONAL
    &END XC
    &POISSON
         PERIODIC XYZ
    &END POISSON
		&KPOINTS
	 		SCHEME MONKHORST-PACK 12 12 12
		 	WAVEFUNCTIONS REAL
		 	SYMMETRY .FALSE.
		  FULL_GRID .FALSE.
			PARALLEL_GROUP_SIZE -1
		&END KPOINTS
    &SCF
      SCF_GUESS ATOMIC
      EPS_SCF 1.0E-7
      MAX_SCF 500
      ADDED_MOS 10
      &DIAGONALIZATION  ON
        ALGORITHM STANDARD
        EPS_ADAPT 0.01
      &END DIAGONALIZATION
      &MIXING  T
        METHOD BROYDEN_MIXING
        ALPHA 0.4
        NBROYDEN 8
      &END MIXING
      &SMEAR ON
        METHOD FERMI_DIRAC
        ELECTRONIC_TEMPERATURE [K] 300
      &END SMEAR
		&END SCF
      &PRINT
         &BAND_STRUCTURE
            ADDED_MOS 10
            FILE_NAME Si.bs
            &KPOINT_SET
               UNITS B_VECTOR
               SPECIAL_POINT L 0.0000 0.5000 0.0000   #L
               SPECIAL_POINT Gam 0.0000 0.0000 0.0000   #GAMMA
               SPECIAL_POINT X -0.500 0.0000 -0.500   #X
               SPECIAL_POINT U -0.375 0.2500 -0.375   #U
               SPECIAL_POINT Gam 0.0000 0.0000 0.0000   #GAMMA
               NPOINTS 10
            &END
         &END BAND_STRUCTURE
      &END PRINT
    
  &END DFT
&END FORCE_EVAL
